set Alimenti := Pane, Latte, Uova, Carne, Dolce;

param Costo :=
Pane 0.1
Latte 0.5
Uova 0.12
Carne 0.9
Dolce 1.3
;

param MaxQuantita :=
Pane 4
Latte 3
Uova 1
Carne 2
Dolce 2
;

param CalorieAlimenti :=
Pane 30
Latte 50
Uova 150
Carne 180
Dolce 400
;

param CalcioAlimenti :=
Pane 0.02
Latte 0.15
Uova 0.05
Carne 0.08
Dolce 0.01
;

param ProteineAlimenti :=
Pane 5
Latte 15
Uova 30
Carne 90
Dolce 70
;
